BEGIN IONS
FORMULA=C13H9F3N2O2
SMILES=C1=CC(=CC(=C1)NC2=C(C=CC=N2)C(=O)O)C(F)(F)F
pepmass=283.069
ORIGIN=qTof
ADDUCT=[M+H]+
ION_SOURCE=LC-ESI
ION_MODE=Positive
INCHIKEY=JZFPYUNJRRFVQU-UHFFFAOYSA-N
60.0555 0.573392
145.0271 0.765364
168.0716 0.823461
196.0643 1.434742
197.067 0.575918
217.0611 1.194776
237.0547 0.621385
237.0672 0.87398
245.056 9.399076
246.0576 1.687337
263.0654 2.394605
265.0649 100.0
266.0673 16.469221
267.0715 1.227614
283.0764 37.189623
284.0773 6.966582
END IONS
